p cnf 12 34
12 -10 8 0
-12 10 7 0
-12 -10 1 0
-12 -9 8 0
12 9 7 0
-12 8 -3 0
-12 6 -3 0
-12 -5 -2 0
12 -3 -2 0
-11 10 6 0
-11 -10 5 0
11 9 -3 0
11 -9 3 0
-11 8 5 0
11 8 1 0
-11 7 -6 0
11 7 5 0
11 6 -4 0
11 4 -1 0
10 -9 -7 0
10 -9 4 0
-10 -7 4 0
-10 -5 2 0
10 4 3 0
-9 -8 5 0
9 8 1 0
9 -6 3 0
-9 -4 -1 0
8 -7 -3 0
7 3 1 0
-7 -2 1 0
6 4 -1 0
5 4 -1 0
-5 2 -1 0
